
Gurobi 10.0.1 (mac64[arm]) logging started Mon Sep 18 22:59:55 2023

Set parameter LogFile to value "scenario_returns/returns_alpha/results/M_j_a_-50/mip_log.txt"
Gurobi Optimizer version 10.0.1 build v10.0.1rc0 (mac64[arm])

CPU model: Apple M1
Thread count: 8 physical cores, 8 logical processors, using up to 8 threads

Optimize a model with 1694 rows, 6293 columns and 24772 nonzeros
Model fingerprint: 0x0677ae69
Model has 8978 general constraints
Variable types: 1 continuous, 6292 integer (408 binary)
Coefficient statistics:
  Matrix range     [6e-02, 3e+05]
  Objective range  [9e-02, 2e+05]
  Bounds range     [1e+00, 2e+07]
  RHS range        [2e+03, 2e+04]
  GenCon rhs range [1e+00, 1e+00]
  GenCon coe range [1e+00, 1e+00]
Presolve removed 44 rows and 373 columns
Presolve time: 0.07s
Presolved: 1650 rows, 5920 columns, 23713 nonzeros
Presolved model has 4 SOS constraint(s)
Variable types: 0 continuous, 5920 integer (34 binary)

Root relaxation: objective 5.871963e+07, 6602 iterations, 0.06 seconds (0.09 work units)

    Nodes    |    Current Node    |     Objective Bounds      |     Work
 Expl Unexpl |  Obj  Depth IntInf | Incumbent    BestBd   Gap | It/Node Time

     0     0 5.8720e+07    0  402          - 5.8720e+07      -     -    0s
H    0     0                    6.741754e+07 5.8814e+07  12.8%     -    0s
H    0     0                    6.709966e+07 5.8814e+07  12.3%     -    0s
     0     0 5.8814e+07    0  754 6.7100e+07 5.8814e+07  12.3%     -    0s
     0     0 5.9465e+07    0  918 6.7100e+07 5.9465e+07  11.4%     -    0s
     0     0 5.9465e+07    0  776 6.7100e+07 5.9465e+07  11.4%     -    0s
     0     0 5.9465e+07    0  915 6.7100e+07 5.9465e+07  11.4%     -    0s
     0     0 5.9465e+07    0  919 6.7100e+07 5.9465e+07  11.4%     -    0s
H    0     0                    6.172003e+07 5.9465e+07  3.65%     -    0s
     0     0 5.9547e+07    0 1308 6.1720e+07 5.9547e+07  3.52%     -    0s
H    0     0                    6.171004e+07 5.9547e+07  3.51%     -    0s
     0     0 5.9572e+07    0 1381 6.1710e+07 5.9572e+07  3.47%     -    0s
     0     0 5.9572e+07    0 1409 6.1710e+07 5.9572e+07  3.47%     -    0s
H    0     0                    6.165749e+07 5.9572e+07  3.38%     -    0s
H    0     0                    6.157207e+07 5.9572e+07  3.25%     -    0s
     0     0 5.9586e+07    0 1174 6.1572e+07 5.9586e+07  3.23%     -    0s
     0     0 5.9587e+07    0 1176 6.1572e+07 5.9587e+07  3.22%     -    0s
     0     0 5.9671e+07    0 1611 6.1572e+07 5.9671e+07  3.09%     -    0s
     0     0 5.9673e+07    0 1593 6.1572e+07 5.9673e+07  3.08%     -    1s
H    0     0                    6.156375e+07 5.9673e+07  3.07%     -    1s
     0     2 5.9673e+07    0 1585 6.1564e+07 5.9673e+07  3.07%     -    1s
H   80    80                    6.156023e+07 5.9869e+07  2.75%   564    2s
H   84    80                    6.146653e+07 5.9869e+07  2.60%   549    2s
H   85    80                    6.095066e+07 5.9869e+07  1.77%   544    2s
*  104    75              13    6.088019e+07 5.9890e+07  1.63%   473    2s
H  406   292                    6.069254e+07 5.9890e+07  1.32%   226    3s
   660   261     cutoff   16      6.0693e+07 6.0202e+07  0.81%   320    5s

Cutting planes:
  Gomory: 3
  Cover: 1
  Implied bound: 1914
  MIR: 153
  Flow path: 1
  Inf proof: 2
  Relax-and-lift: 49

Explored 1033 nodes (345280 simplex iterations) in 6.85 seconds (11.72 work units)
Thread count was 8 (of 8 available processors)

Solution count 10: 6.06925e+07 6.08802e+07 6.09507e+07 ... 6.172e+07

Optimal solution found (tolerance 1.00e-04)
Best objective 6.069254320000e+07, best bound 6.069254320000e+07, gap 0.0000%
